n = 35;
m = 74;
w = [2,7,4,6,8,3,8,8,7,2,1,7,9,6,3,4,7,2,6,7,3,5,8,7,7,1,10,9,8,3,3,6,10,8,8,10,7,5,9,8,7,1,3,7,7,10,6,6,9,8,5,8,3,7,2,7,10,9,5,6,6,8,4,6,10,6,4,5,2,5,1,1,2,3];
edges = array2d(1..m, 1..2, [1,4,1,14,1,15,1,20,1,24,1,33,1,35,2,5,2,12,2,29,3,12,4,5,4,11,4,13,5,8,5,21,5,22,5,23,5,24,6,15,6,24,6,27,6,32,6,33,6,34,7,34,8,11,8,12,8,14,8,16,8,25,8,29,9,15,9,19,9,23,9,31,10,13,10,22,10,27,11,28,11,33,12,22,12,23,13,22,13,27,14,17,14,20,14,26,14,29,14,32,15,26,16,20,16,26,16,29,16,33,17,33,18,28,18,35,19,20,19,27,19,35,21,22,21,30,22,24,23,24,23,26,23,34,23,35,25,29,27,28,27,32,30,31,31,35,32,33]);
